(set-logic QF_SLIA)
(declare-fun var0 () String)
(assert (not (str.in_re var0 (re.++ ((_ re.loop 14 161) (re.++ (re.union (str.to_re "8f") (re.union (str.to_re "+") (re.union (str.to_re "9n") (str.to_re "u")))) (re.++ (re.union (str.to_re "mh") (re.union (str.to_re "CNb") (re.union (str.to_re "D=$") (str.to_re "6hk")))) (re.++ (re.union (str.to_re "h-0") (re.union (str.to_re "2&<") (re.union (str.to_re "+V") (str.to_re "H")))) (re.union (str.to_re "k{~") (re.union (str.to_re "v39") (re.union (str.to_re "yR") (str.to_re "=A")))))))) (re.++ ((_ re.loop 6 57) (re.++ (re.union (str.to_re "qd") (re.union (str.to_re "[m") (re.union (str.to_re "\u0022a`") (str.to_re "#x")))) (re.++ (re.union (str.to_re "<") (re.union (str.to_re "N") (re.union (str.to_re "VK") (str.to_re "gTF")))) (re.++ (re.union (str.to_re "e") (re.union (str.to_re "[2m") (re.union (str.to_re "@7>") (str.to_re "Zel")))) (re.union (str.to_re "Bj") (re.union (str.to_re "UM") (re.union (str.to_re ";") (str.to_re "a")))))))) (re.++ ((_ re.loop 12 127) (re.++ (re.union (str.to_re "6") (re.union (str.to_re "+e") (re.union (str.to_re "T") (str.to_re "XT<")))) (re.++ (re.union (str.to_re "m\u0022(") (re.union (str.to_re "Slw") (re.union (str.to_re "$h=") (str.to_re "(x")))) (re.++ (re.union (str.to_re "[s") (re.union (str.to_re "Uw") (re.union (str.to_re "0g.") (str.to_re "&U")))) (re.union (str.to_re "WV") (re.union (str.to_re "!") (re.union (str.to_re "`yo") (str.to_re "-_x")))))))) ((_ re.loop 7 550) (re.++ (re.union (str.to_re "IJ") (re.union (str.to_re "-") (re.union (str.to_re "ZR") (str.to_re "im")))) (re.++ (re.union (str.to_re "Y{") (re.union (str.to_re "9") (re.union (str.to_re "^)") (str.to_re ">")))) (re.++ (re.union (str.to_re "9,") (re.union (str.to_re "F") (re.union (str.to_re "@#\u0022") (str.to_re "f5")))) (re.union (str.to_re ".Yj") (re.union (str.to_re "~e") (re.union (str.to_re "~jx") (str.to_re "VD*"))))))))))))))
(assert (not (str.in_re var0 (re.++ ((_ re.loop 8 586) (re.++ (re.union (str.to_re "P.T") (re.union (str.to_re "k7:") (re.union (str.to_re "[c") (str.to_re "S")))) (re.++ (re.union (str.to_re "xP9") (re.union (str.to_re "Q") (re.union (str.to_re "U") (str.to_re ")\\:")))) (re.++ (re.union (str.to_re "v") (re.union (str.to_re "Mk(") (re.union (str.to_re "KWP") (str.to_re "z")))) (re.union (str.to_re "P%") (re.union (str.to_re "k") (re.union (str.to_re "y_") (str.to_re "Fyk")))))))) (re.++ ((_ re.loop 16 314) (re.++ (re.union (str.to_re "Y(\u0022") (re.union (str.to_re "ih!") (re.union (str.to_re "qz") (str.to_re "+")))) (re.++ (re.union (str.to_re "l0{") (re.union (str.to_re "jY") (re.union (str.to_re "O]") (str.to_re "V^")))) (re.++ (re.union (str.to_re "`l|") (re.union (str.to_re "K") (re.union (str.to_re "@\u0022|") (str.to_re "?^")))) (re.union (str.to_re ">") (re.union (str.to_re "x") (re.union (str.to_re "F") (str.to_re "cd")))))))) (re.++ ((_ re.loop 8 472) (re.++ (re.union (str.to_re ".\u0022") (re.union (str.to_re "$&r") (re.union (str.to_re "^(H") (str.to_re "+{g")))) (re.++ (re.union (str.to_re ">Z") (re.union (str.to_re "rn") (re.union (str.to_re "0D") (str.to_re "N")))) (re.++ (re.union (str.to_re "fPw") (re.union (str.to_re "a>?") (re.union (str.to_re ",i") (str.to_re "=)p")))) (re.union (str.to_re "Y@") (re.union (str.to_re "fP0") (re.union (str.to_re "2t*") (str.to_re "R")))))))) ((_ re.loop 7 857) (re.++ (re.union (str.to_re "YQJ") (re.union (str.to_re "G^") (re.union (str.to_re "/") (str.to_re "F+F")))) (re.++ (re.union (str.to_re "Gd\u0022") (re.union (str.to_re "(") (re.union (str.to_re ")") (str.to_re "\u0022>7")))) (re.++ (re.union (str.to_re "zt7") (re.union (str.to_re "7i") (re.union (str.to_re "Y") (str.to_re "/]r")))) (re.union (str.to_re "[") (re.union (str.to_re "s") (re.union (str.to_re "+06") (str.to_re "8h"))))))))))))))
(assert (not (str.in_re var0 (re.++ (re.* re.allchar) (re.++ (re.union (str.to_re "<") (re.union (str.to_re ">") (re.union (str.to_re "'") (re.union (str.to_re "\u0022") (str.to_re "&"))))) (re.* re.allchar))))))
(assert (<= 50 (str.len var0)))
(check-sat)
(get-model)
